solution status: optimal solution found
objective value:                                    0
A0                                                  1 	(obj:0)
B7                                                  1 	(obj:0)
C4                                                  1 	(obj:0)
D3                                                  1 	(obj:0)
E_2                                                 1 	(obj:0)
E_5                                                 1 	(obj:0)
E_8                                                 1 	(obj:0)
F3                                                  1 	(obj:0)
F6                                                  1 	(obj:0)
G3                                                  1 	(obj:0)
H1                                                  1 	(obj:0)
I3                                                  1 	(obj:0)
L9                                                  1 	(obj:0)
